/*********************************************
 * OPL 22.1.1.0 Data
 * Author: Lopamudra
 * Creation Date: 28-Nov-2024 at 3:04:05 PM
 *********************************************/
N=10;
M=3;
T=10; 
d = [[0, 1.2, 2.3, 1.4, 2.1, 2.6, 1.7, 2.8, 1.9, 2.0],
    [1.2, 0, 1.5, 1.3, 1.8, 1.6, 2.1, 2.4, 2.5, 2.7],
    [2.3, 1.5, 0, 2.1, 1.2, 2.7, 1.6, 2.0, 2.3, 2.9],
    [1.4, 1.3, 2.1, 0, 1.7, 2.2, 1.8, 2.6, 2.4, 2.8],
    [2.1, 1.8, 1.2, 1.7, 0, 2.3, 1.5, 2.2, 2.7, 2.1],
    [2.6, 1.6, 2.7, 2.2, 2.3, 0, 1.9, 2.5, 2.8, 2.4],
    [1.7, 2.1, 1.6, 1.8, 1.5, 1.9, 0, 2.2, 2.4, 2.6],
    [2.8, 2.4, 2.0, 2.6, 2.2, 2.5, 2.2, 0, 2.3, 2.1],
    [1.9, 2.5, 2.3, 2.4, 2.7, 2.8, 2.4, 2.3, 0, 2.0],
    [2.0, 2.7, 2.9, 2.8, 2.1, 2.4, 2.6, 2.1, 2.0, 0]];
    
 f = [50, 40, 60, 70, 30, 80, 50, 90, 30, 40];
 os= [0.6, 0.5, 0.7, 0.4, 0.8, 0.3, 0.9, 0.2, 0.7, 0.6];
 max_time=600;
 mp=0.4;
 sal=100;
 alpha=1;
 beta=1;